p cnf 400 944
1 0
-2 0
-3 0
-4 0
-5 0
-6 0
-7 0
-8 0
-9 0
-10 0
-11 0
-12 0
-13 0
-14 0
-15 0
-16 0
-17 0
-18 0
-19 0
-20 0
-21 0
-22 0
-23 0
1 -24 0
24 -1 0
25 26 0
27 26 0
-25 -27 -26 0
-2 26 -28 0
2 -26 -28 0
28 -26 -2 0
2 26 28 0
-28 0
3 29 0
30 29 0
-3 -30 -29 0
-27 29 -31 0
27 -29 -31 0
31 -29 -27 0
27 29 31 0
-31 0
30 32 0
33 32 0
-30 -33 -32 0
-3 32 -34 0
3 -32 -34 0
34 -32 -3 0
3 32 34 0
-34 0
35 36 0
37 36 0
-35 -37 -36 0
-4 36 -38 0
4 -36 -38 0
38 -36 -4 0
4 36 38 0
-38 0
2 39 0
40 39 0
-2 -40 -39 0
-37 39 -41 0
37 -39 -41 0
41 -39 -37 0
37 39 41 0
-41 0
42 43 0
44 43 0
-42 -44 -43 0
-5 43 -45 0
5 -43 -45 0
45 -43 -5 0
5 43 45 0
-45 0
46 47 0
48 47 0
-46 -48 -47 0
-44 47 -49 0
44 -47 -49 0
49 -47 -44 0
44 47 49 0
-49 0
50 51 0
52 51 0
-50 -52 -51 0
-48 51 -53 0
48 -51 -53 0
53 -51 -48 0
48 51 53 0
-53 0
54 55 0
56 55 0
-54 -56 -55 0
-52 55 -57 0
52 -55 -57 0
57 -55 -52 0
52 55 57 0
-57 0
6 58 0
59 58 0
-6 -59 -58 0
-56 58 -60 0
56 -58 -60 0
60 -58 -56 0
56 58 60 0
-60 0
50 61 0
54 61 0
59 61 0
62 61 0
-63 0
-6 61 -64 0
6 -61 -64 0
64 -61 -6 0
6 61 64 0
-64 0
65 66 0
67 66 0
-65 -67 -66 0
-7 66 -68 0
7 -66 -68 0
68 -66 -7 0
7 66 68 0
-68 0
69 70 0
71 70 0
-69 -71 -70 0
-67 70 -72 0
67 -70 -72 0
72 -70 -67 0
67 70 72 0
-72 0
73 74 0
75 74 0
-73 -75 -74 0
-71 74 -76 0
71 -74 -76 0
76 -74 -71 0
71 74 76 0
-76 0
77 78 0
79 78 0
-77 -79 -78 0
-75 78 -80 0
75 -78 -80 0
80 -78 -75 0
75 78 80 0
-80 0
81 82 0
83 82 0
-81 -83 -82 0
-79 82 -84 0
79 -82 -84 0
84 -82 -79 0
79 82 84 0
-84 0
73 85 0
77 85 0
81 85 0
86 85 0
-87 0
-83 85 -88 0
83 -85 -88 0
88 -85 -83 0
83 85 88 0
-88 0
9 89 0
90 89 0
-9 -90 -89 0
-8 89 -91 0
8 -89 -91 0
91 -89 -8 0
8 89 91 0
-91 0
92 93 0
94 93 0
-92 -94 -93 0
-9 93 -95 0
9 -93 -95 0
95 -93 -9 0
9 93 95 0
-95 0
1 96 0
97 96 0
-1 -97 -96 0
-94 96 -98 0
94 -96 -98 0
98 -96 -94 0
94 96 98 0
-98 0
99 100 0
101 100 0
-99 -101 -100 0
-10 100 -102 0
10 -100 -102 0
102 -100 -10 0
10 100 102 0
-102 0
103 104 0
105 104 0
-103 -105 -104 0
-101 104 -106 0
101 -104 -106 0
106 -104 -101 0
101 104 106 0
-106 0
107 108 0
109 108 0
-107 -109 -108 0
-105 108 -110 0
105 -108 -110 0
110 -108 -105 0
105 108 110 0
-110 0
111 112 0
113 112 0
-111 -113 -112 0
-109 112 -114 0
109 -112 -114 0
114 -112 -109 0
109 112 114 0
-114 0
115 116 0
117 116 0
-115 -117 -116 0
-113 116 -118 0
113 -116 -118 0
118 -116 -113 0
113 116 118 0
-118 0
111 119 0
115 119 0
120 119 0
-111 -115 -120 -119 0
-117 119 -121 0
117 -119 -121 0
121 -119 -117 0
117 119 121 0
-121 0
122 123 0
124 123 0
-122 -124 -123 0
-11 123 -125 0
11 -123 -125 0
125 -123 -11 0
11 123 125 0
-125 0
9 126 0
127 126 0
-9 -127 -126 0
-124 126 -128 0
124 -126 -128 0
128 -126 -124 0
124 126 128 0
-128 0
129 130 0
131 130 0
-129 -131 -130 0
-12 130 -132 0
12 -130 -132 0
132 -130 -12 0
12 130 132 0
-132 0
105 133 0
134 133 0
-105 -134 -133 0
-131 133 -135 0
131 -133 -135 0
135 -133 -131 0
131 133 135 0
-135 0
136 137 0
138 137 0
-136 -138 -137 0
-13 137 -139 0
13 -137 -139 0
139 -137 -13 0
13 137 139 0
-139 0
140 141 0
142 141 0
-140 -142 -141 0
-138 141 -143 0
138 -141 -143 0
143 -141 -138 0
138 141 143 0
-143 0
144 145 0
146 145 0
-144 -146 -145 0
-142 145 -147 0
142 -145 -147 0
147 -145 -142 0
142 145 147 0
-147 0
75 148 0
149 148 0
-75 -149 -148 0
-146 148 -150 0
146 -148 -150 0
150 -148 -146 0
146 148 150 0
-150 0
151 152 0
153 152 0
-151 -153 -152 0
-14 152 -154 0
14 -152 -154 0
154 -152 -14 0
14 152 154 0
-154 0
155 156 0
157 156 0
-155 -157 -156 0
-153 156 -158 0
153 -156 -158 0
158 -156 -153 0
153 156 158 0
-158 0
3 159 0
160 159 0
-3 -160 -159 0
-157 159 -161 0
157 -159 -161 0
161 -159 -157 0
157 159 161 0
-161 0
162 163 0
164 163 0
-162 -164 -163 0
-15 163 -165 0
15 -163 -165 0
165 -163 -15 0
15 163 165 0
-165 0
117 166 0
167 166 0
-117 -167 -166 0
-164 166 -168 0
164 -166 -168 0
168 -166 -164 0
164 166 168 0
-168 0
37 169 0
170 169 0
-37 -170 -169 0
-16 169 -171 0
16 -169 -171 0
171 -169 -16 0
16 169 171 0
-171 0
172 173 0
174 173 0
-172 -174 -173 0
-17 173 -175 0
17 -173 -175 0
175 -173 -17 0
17 173 175 0
-175 0
176 177 0
178 177 0
-176 -178 -177 0
-174 177 -179 0
174 -177 -179 0
179 -177 -174 0
174 177 179 0
-179 0
180 181 0
182 181 0
-180 -182 -181 0
-178 181 -183 0
178 -181 -183 0
183 -181 -178 0
178 181 183 0
-183 0
184 185 0
186 185 0
-184 -186 -185 0
-182 185 -187 0
182 -185 -187 0
187 -185 -182 0
182 185 187 0
-187 0
188 189 0
190 189 0
-188 -190 -189 0
-186 189 -191 0
186 -189 -191 0
191 -189 -186 0
186 189 191 0
-191 0
192 193 0
194 193 0
-192 -194 -193 0
-190 193 -195 0
190 -193 -195 0
195 -193 -190 0
190 193 195 0
-195 0
188 196 0
192 196 0
197 196 0
-188 -192 -197 -196 0
-194 196 -198 0
194 -196 -198 0
198 -196 -194 0
194 196 198 0
-198 0
199 200 0
201 200 0
-199 -201 -200 0
-18 200 -202 0
18 -200 -202 0
202 -200 -18 0
18 200 202 0
-202 0
203 204 0
205 204 0
-203 -205 -204 0
-201 204 -206 0
201 -204 -206 0
206 -204 -201 0
201 204 206 0
-206 0
207 208 0
209 208 0
-207 -209 -208 0
-205 208 -210 0
205 -208 -210 0
210 -208 -205 0
205 208 210 0
-210 0
6 211 0
212 211 0
-6 -212 -211 0
-209 211 -213 0
209 -211 -213 0
213 -211 -209 0
209 211 213 0
-213 0
214 215 0
216 215 0
-214 -216 -215 0
-19 215 -217 0
19 -215 -217 0
217 -215 -19 0
19 215 217 0
-217 0
52 218 0
219 218 0
-52 -219 -218 0
-216 218 -220 0
216 -218 -220 0
220 -218 -216 0
216 218 220 0
-220 0
221 222 0
223 222 0
-221 -223 -222 0
-20 222 -224 0
20 -222 -224 0
224 -222 -20 0
20 222 224 0
-224 0
225 226 0
227 226 0
-225 -227 -226 0
-223 226 -228 0
223 -226 -228 0
228 -226 -223 0
223 226 228 0
-228 0
113 229 0
230 229 0
-113 -230 -229 0
-227 229 -231 0
227 -229 -231 0
231 -229 -227 0
227 229 231 0
-231 0
232 233 0
234 233 0
-232 -234 -233 0
-21 233 -235 0
21 -233 -235 0
235 -233 -21 0
21 233 235 0
-235 0
22 236 0
237 236 0
-22 -237 -236 0
-234 236 -238 0
234 -236 -238 0
238 -236 -234 0
234 236 238 0
-238 0
239 240 0
241 240 0
-239 -241 -240 0
-22 240 -242 0
22 -240 -242 0
242 -240 -22 0
22 240 242 0
-242 0
239 243 0
244 243 0
-239 -244 -243 0
-241 243 -245 0
241 -243 -245 0
245 -243 -241 0
241 243 245 0
-245 0
246 247 0
248 247 0
-246 -248 -247 0
-23 247 -249 0
23 -247 -249 0
249 -247 -23 0
23 247 249 0
-249 0
250 251 0
252 251 0
-250 -252 -251 0
-248 251 -253 0
248 -251 -253 0
253 -251 -248 0
248 251 253 0
-253 0
254 255 0
256 255 0
-254 -256 -255 0
-252 255 -257 0
252 -255 -257 0
257 -255 -252 0
252 255 257 0
-257 0
246 258 0
250 258 0
254 258 0
259 258 0
-260 0
-256 258 -261 0
256 -258 -261 0
261 -258 -256 0
256 258 261 0
-261 0
-24 262 -263 0
24 -262 -263 0
-24 -262 263 0
24 262 263 0
-263 0
-25 264 -265 0
25 -264 -265 0
-25 -264 265 0
25 264 265 0
-265 0
-30 266 -267 0
30 -266 -267 0
-30 -266 267 0
30 266 267 0
-267 0
-33 268 -269 0
33 -268 -269 0
-33 -268 269 0
33 268 269 0
-269 0
-35 270 -271 0
35 -270 -271 0
-35 -270 271 0
35 270 271 0
-271 0
-40 272 -273 0
40 -272 -273 0
-40 -272 273 0
40 272 273 0
-273 0
-42 274 -275 0
42 -274 -275 0
-42 -274 275 0
42 274 275 0
-275 0
-46 276 -277 0
46 -276 -277 0
-46 -276 277 0
46 276 277 0
-277 0
-50 278 -279 0
50 -278 -279 0
-50 -278 279 0
50 278 279 0
-279 0
-54 280 -281 0
54 -280 -281 0
-54 -280 281 0
54 280 281 0
-281 0
-59 282 -283 0
59 -282 -283 0
-59 -282 283 0
59 282 283 0
-283 0
-62 284 -285 0
62 -284 -285 0
-62 -284 285 0
62 284 285 0
-285 0
-65 286 -287 0
65 -286 -287 0
-65 -286 287 0
65 286 287 0
-287 0
-69 288 -289 0
69 -288 -289 0
-69 -288 289 0
69 288 289 0
-289 0
-73 290 -291 0
73 -290 -291 0
-73 -290 291 0
73 290 291 0
-291 0
-77 292 -293 0
77 -292 -293 0
-77 -292 293 0
77 292 293 0
-293 0
-81 294 -295 0
81 -294 -295 0
-81 -294 295 0
81 294 295 0
-295 0
-86 296 -297 0
86 -296 -297 0
-86 -296 297 0
86 296 297 0
-297 0
-90 298 -299 0
90 -298 -299 0
-90 -298 299 0
90 298 299 0
-299 0
-92 300 -301 0
92 -300 -301 0
-92 -300 301 0
92 300 301 0
-301 0
-97 302 -303 0
97 -302 -303 0
-97 -302 303 0
97 302 303 0
-303 0
-99 304 -305 0
99 -304 -305 0
-99 -304 305 0
99 304 305 0
-305 0
-103 306 -307 0
103 -306 -307 0
-103 -306 307 0
103 306 307 0
-307 0
-107 308 -309 0
107 -308 -309 0
-107 -308 309 0
107 308 309 0
-309 0
-111 310 -311 0
111 -310 -311 0
-111 -310 311 0
111 310 311 0
-311 0
-115 312 -313 0
115 -312 -313 0
-115 -312 313 0
115 312 313 0
-313 0
-120 314 -315 0
120 -314 -315 0
-120 -314 315 0
120 314 315 0
-315 0
-122 316 -317 0
122 -316 -317 0
-122 -316 317 0
122 316 317 0
-317 0
-127 318 -319 0
127 -318 -319 0
-127 -318 319 0
127 318 319 0
-319 0
-129 320 -321 0
129 -320 -321 0
-129 -320 321 0
129 320 321 0
-321 0
-134 322 -323 0
134 -322 -323 0
-134 -322 323 0
134 322 323 0
-323 0
-136 324 -325 0
136 -324 -325 0
-136 -324 325 0
136 324 325 0
-325 0
-140 326 -327 0
140 -326 -327 0
-140 -326 327 0
140 326 327 0
-327 0
-144 328 -329 0
144 -328 -329 0
-144 -328 329 0
144 328 329 0
-329 0
-149 330 -331 0
149 -330 -331 0
-149 -330 331 0
149 330 331 0
-331 0
-151 332 -333 0
151 -332 -333 0
-151 -332 333 0
151 332 333 0
-333 0
-155 334 -335 0
155 -334 -335 0
-155 -334 335 0
155 334 335 0
-335 0
-160 336 -337 0
160 -336 -337 0
-160 -336 337 0
160 336 337 0
-337 0
-162 338 -339 0
162 -338 -339 0
-162 -338 339 0
162 338 339 0
-339 0
-167 340 -341 0
167 -340 -341 0
-167 -340 341 0
167 340 341 0
-341 0
-170 342 -343 0
170 -342 -343 0
-170 -342 343 0
170 342 343 0
-343 0
-172 344 -345 0
172 -344 -345 0
-172 -344 345 0
172 344 345 0
-345 0
-176 346 -347 0
176 -346 -347 0
-176 -346 347 0
176 346 347 0
-347 0
-180 348 -349 0
180 -348 -349 0
-180 -348 349 0
180 348 349 0
-349 0
-184 350 -351 0
184 -350 -351 0
-184 -350 351 0
184 350 351 0
-351 0
-188 352 -353 0
188 -352 -353 0
-188 -352 353 0
188 352 353 0
-353 0
-192 354 -355 0
192 -354 -355 0
-192 -354 355 0
192 354 355 0
-355 0
-197 356 -357 0
197 -356 -357 0
-197 -356 357 0
197 356 357 0
-357 0
-199 358 -359 0
199 -358 -359 0
-199 -358 359 0
199 358 359 0
-359 0
-203 360 -361 0
203 -360 -361 0
-203 -360 361 0
203 360 361 0
-361 0
-207 362 -363 0
207 -362 -363 0
-207 -362 363 0
207 362 363 0
-363 0
-212 364 -365 0
212 -364 -365 0
-212 -364 365 0
212 364 365 0
-365 0
-214 366 -367 0
214 -366 -367 0
-214 -366 367 0
214 366 367 0
-367 0
-219 368 -369 0
219 -368 -369 0
-219 -368 369 0
219 368 369 0
-369 0
-221 370 -371 0
221 -370 -371 0
-221 -370 371 0
221 370 371 0
-371 0
-225 372 -373 0
225 -372 -373 0
-225 -372 373 0
225 372 373 0
-373 0
-230 374 -375 0
230 -374 -375 0
-230 -374 375 0
230 374 375 0
-375 0
-232 376 -377 0
232 -376 -377 0
-232 -376 377 0
232 376 377 0
-377 0
-237 378 -379 0
237 -378 -379 0
-237 -378 379 0
237 378 379 0
-379 0
-239 380 -381 0
239 -380 -381 0
-239 -380 381 0
239 380 381 0
-381 0
-244 382 -383 0
244 -382 -383 0
-244 -382 383 0
244 382 383 0
-383 0
-246 384 -385 0
246 -384 -385 0
-246 -384 385 0
246 384 385 0
-385 0
-250 386 -387 0
250 -386 -387 0
-250 -386 387 0
250 386 387 0
-387 0
-254 388 -389 0
254 -388 -389 0
-254 -388 389 0
254 388 389 0
-389 0
-259 390 -391 0
259 -390 -391 0
-259 -390 391 0
259 390 391 0
-391 0
-392 -262 0
264 -392 0
266 -392 0
-392 -268 0
-392 -270 0
272 -392 0
-392 -274 0
-392 -276 0
278 -392 0
-392 -280 0
-392 -282 0
284 -392 0
286 -392 0
-392 -288 0
-392 -290 0
-392 -292 0
-392 -294 0
296 -392 0
-392 -298 0
-392 -300 0
302 -392 0
304 -392 0
-392 -306 0
-392 -308 0
310 -392 0
-392 -312 0
314 -392 0
316 -392 0
318 -392 0
-392 -320 0
322 -392 0
-392 -324 0
-392 -326 0
-392 -328 0
330 -392 0
332 -392 0
334 -392 0
-392 -336 0
-392 -338 0
340 -392 0
342 -392 0
-392 -344 0
-392 -346 0
-392 -348 0
350 -392 0
352 -392 0
-392 -354 0
-392 -356 0
-392 -358 0
-392 -360 0
-392 -362 0
364 -392 0
366 -392 0
-392 -368 0
370 -392 0
-392 -372 0
-392 -374 0
376 -392 0
-392 -378 0
-392 -380 0
382 -392 0
384 -392 0
386 -392 0
388 -392 0
-392 -390 0
392 0
-393 0
-394 0
-395 0
-396 0
-397 0
-398 0
-399 0
-400 0
